GLPSOL--GLPK LP/MIP Solver 5.0
Parameter(s) specified in the command line:
 --lp ../modeles/5_409.lp --log 5_409.log
Reading problem data from '../modeles/5_409.lp'...
2066 rows, 4100 columns, 14340 non-zeros
2045 integer variables, all of which are binary
6177 lines were read
GLPK Integer Optimizer 5.0
2066 rows, 4100 columns, 14340 non-zeros
2045 integer variables, all of which are binary
Preprocessing...
2030 constraint coefficient(s) were reduced
2066 rows, 4095 columns, 14335 non-zeros
2045 integer variables, all of which are binary
Scaling...
 A: min|aij| =  2.391e-05  max|aij| =  4.000e+00  ratio =  1.673e+05
GM: min|aij| =  4.945e-02  max|aij| =  2.022e+01  ratio =  4.090e+02
EQ: min|aij| =  2.445e-03  max|aij| =  1.000e+00  ratio =  4.090e+02
2N: min|aij| =  1.530e-03  max|aij| =  1.707e+00  ratio =  1.116e+03
Constructing initial basis...
Size of triangular part is 2066
Solving LP relaxation...
GLPK Simplex Optimizer 5.0
2066 rows, 4095 columns, 14335 non-zeros
      0: obj =   1.000000000e+01 inf =   2.795e+02 (11)
    194: obj =   4.999432090e-01 inf =   0.000e+00 (0)
*   493: obj =  -2.235974540e+00 inf =   7.785e-15 (0)
OPTIMAL LP SOLUTION FOUND
Integer optimization begins...
Long-step dual simplex will be used
+   493: mip =     not found yet >=              -inf        (1; 0)
+   496: >>>>>  -2.235974540e+00 >=  -2.235974540e+00 < 0.1% (3; 0)
+   496: mip =  -2.235974540e+00 >=     tree is empty   0.0% (0; 5)
INTEGER OPTIMAL SOLUTION FOUND
Time used:   0.1 secs
Memory used: 5.9 Mb (6171331 bytes)
